NAME   JuMPModel
ROWS
 N  OBJ
 L  CON1
 L  CON2
 L  CON3
 L  CON4
 L  CON5
 L  CON6
 L  CON7
 L  CON8
 L  CON9
 L  CON10
 L  CON11
 L  CON12
 L  CON13
 L  CON14
 L  CON15
 L  CON16
 L  CON17
 L  CON18
 E  CON19
 E  CON20
 E  CON21
 L  CON22
 L  CON23
 L  CON24
 L  CON25
 L  CON26
 L  CON27
 L  CON28
 L  CON29
 L  CON30
 L  CON31
 L  CON32
 L  CON33
 L  CON34
 L  CON35
 L  CON36
 L  CON37
 L  CON38
 L  CON39
 L  CON40
 L  CON41
COLUMNS
    VAR1  CON1  1
    VAR1  CON7  0
    VAR1  CON11  -1
    VAR1  CON18  -1
    VAR1  CON19  1
    VAR1  CON24  -1
    VAR1  CON36  1
    VAR1  OBJ  1
    VAR2  CON1  1
    VAR2  CON8  1
    VAR2  CON19  1
    VAR2  CON22  -1
    VAR2  CON26  -1
    VAR2  CON37  1
    VAR2  OBJ  0
    VAR3  CON2  1
    VAR3  CON8  -1
    VAR3  CON9  0
    VAR3  CON12  -1
    VAR3  CON19  1
    VAR3  CON23  -1
    VAR3  CON37  1
    VAR3  OBJ  1
    VAR4  CON3  1
    VAR4  CON10  0
    VAR4  CON15  -1
    VAR4  CON17  -1
    VAR4  CON19  1
    VAR4  CON28  -1
    VAR4  CON38  1
    VAR4  OBJ  1
    VAR5  CON3  1
    VAR5  CON11  1
    VAR5  CON19  1
    VAR5  CON25  -1
    VAR5  CON30  -1
    VAR5  CON36  1
    VAR5  OBJ  0
    VAR6  CON3  1
    VAR6  CON12  1
    VAR6  CON19  1
    VAR6  CON27  -1
    VAR6  CON37  1
    VAR6  OBJ  0
    VAR7  CON4  1
    VAR7  CON13  0
    VAR7  CON19  1
    VAR7  CON39  1
    VAR7  OBJ  1
    VAR8  CON4  1
    VAR8  CON14  1
    VAR8  CON19  1
    VAR8  CON32  -1
    VAR8  CON40  1
    VAR8  OBJ  0
    VAR9  CON4  1
    VAR9  CON15  1
    VAR9  CON19  1
    VAR9  CON34  -1
    VAR9  CON38  1
    VAR9  OBJ  0
    VAR10  CON5  1
    VAR10  CON14  -1
    VAR10  CON16  0
    VAR10  CON19  1
    VAR10  CON33  -1
    VAR10  CON40  1
    VAR10  OBJ  1
    VAR11  CON5  1
    VAR11  CON17  1
    VAR11  CON19  1
    VAR11  CON29  -1
    VAR11  CON35  -1
    VAR11  CON38  1
    VAR11  OBJ  0
    VAR12  CON5  1
    VAR12  CON18  1
    VAR12  CON19  1
    VAR12  CON31  -1
    VAR12  CON36  1
    VAR12  OBJ  0
    VAR13  CON22  1
    VAR13  CON23  1
    VAR13  CON37  -1
    VAR13  OBJ  0
    VAR14  CON24  1
    VAR14  CON25  1
    VAR14  CON36  -1
    VAR14  OBJ  0
    VAR15  CON26  1
    VAR15  CON27  1
    VAR15  CON37  -1
    VAR15  OBJ  0
    VAR16  CON28  1
    VAR16  CON29  1
    VAR16  CON38  -1
    VAR16  OBJ  0
    VAR17  CON30  1
    VAR17  CON31  1
    VAR17  CON36  -1
    VAR17  OBJ  0
    VAR18  CON32  1
    VAR18  CON33  1
    VAR18  CON40  -1
    VAR18  OBJ  0
    VAR19  CON34  1
    VAR19  CON35  1
    VAR19  CON38  -1
    VAR19  OBJ  0
RHS
    rhs    CON1    1
    rhs    CON2    1
    rhs    CON3    1
    rhs    CON4    1
    rhs    CON5    1
    rhs    CON6    1
    rhs    CON7    0
    rhs    CON8    0
    rhs    CON9    0
    rhs    CON10    0
    rhs    CON11    0
    rhs    CON12    0
    rhs    CON13    0
    rhs    CON14    0
    rhs    CON15    0
    rhs    CON16    0
    rhs    CON17    0
    rhs    CON18    0
    rhs    CON19    3
    rhs    CON20    0
    rhs    CON21    0
    rhs    CON22    0
    rhs    CON23    0
    rhs    CON24    0
    rhs    CON25    0
    rhs    CON26    0
    rhs    CON27    0
    rhs    CON28    0
    rhs    CON29    0
    rhs    CON30    0
    rhs    CON31    0
    rhs    CON32    0
    rhs    CON33    0
    rhs    CON34    0
    rhs    CON35    0
    rhs    CON36    1
    rhs    CON37    1
    rhs    CON38    1
    rhs    CON39    1
    rhs    CON40    1
    rhs    CON41    1
BOUNDS
  UP BOUND VAR1 1
  UP BOUND VAR2 1
  UP BOUND VAR3 1
  UP BOUND VAR4 1
  UP BOUND VAR5 1
  UP BOUND VAR6 1
  UP BOUND VAR7 1
  UP BOUND VAR8 1
  UP BOUND VAR9 1
  UP BOUND VAR10 1
  UP BOUND VAR11 1
  UP BOUND VAR12 1
  UP BOUND VAR13 1
  UP BOUND VAR14 1
  UP BOUND VAR15 1
  UP BOUND VAR16 1
  UP BOUND VAR17 1
  UP BOUND VAR18 1
  UP BOUND VAR19 1
ENDATA
